\ This file has been generated by DOcplex
\ ENCODING=ISO-8859-1
\Problem name: random_problem.lp

Minimize
 obj: - 6 x2 + 10 x3 + 2 x4 + x5 + 6 x6 + 10 x7 + 3 x8 - 7 x9 - 10 x10 + 6 x11
      + 6 x12 - 4 x13 - 9 x14 + 4 x15 - 6 x16 + x17 + [ 12 x0*x6 + 6 x0*x8
      + 6 x0*x10 - 4 x0*x15 + 4 x0*x18 + 8 x1*x6 - 6 x1*x7 + 20 x1*x11
      + 6 x1*x12 - 4 x1*x18 - 2 x2*x3 - 12 x2*x8 + 20 x2*x9 + 2 x2*x10
      - 14 x2*x17 - 2 x3*x6 + 8 x3*x7 + 4 x3*x12 - 8 x3*x15 + 2 x4*x5 + 12 x4*x9
      - 10 x4*x11 - 10 x4*x15 - 6 x4*x17 + 12 x5*x9 + 18 x5*x10 + 2 x5*x13
      - 16 x5*x16 + 6 x6*x8 - 2 x6*x13 - 14 x7*x8 - 12 x7*x14 + 2 x7*x16
      + 8 x8*x13 - 10 x9*x11 + 12 x9*x14 - 10 x10*x15 - 2 x10*x16 - 8 x11*x12
      + 2 x11*x14 - 16 x12*x17 - 10 x12*x18 - 8 x13*x16 - 16 x13*x17
      + 20 x14*x17 - 6 x14*x18 + 10 x15*x18 ]/2
Subject To
 c0: - 2 x3 + 2 x7 + x10 - 2 x12 - 2 x15 = -2
 c1: 2 x5 - x8 - x11 + x12 + 2 x14 = 1
 c2: 2 x0 - 2 x1 - x2 + 2 x3 - x18 = 1

Bounds
 0 <= x0 <= 1
 0 <= x1 <= 1
 0 <= x2 <= 1
 0 <= x3 <= 1
 0 <= x4 <= 1
 0 <= x5 <= 1
 0 <= x6 <= 1
 0 <= x7 <= 1
 0 <= x8 <= 1
 0 <= x9 <= 1
 0 <= x10 <= 1
 0 <= x11 <= 1
 0 <= x12 <= 1
 0 <= x13 <= 1
 0 <= x14 <= 1
 0 <= x15 <= 1
 0 <= x16 <= 1
 0 <= x17 <= 1
 0 <= x18 <= 1

Binaries
 x0 x1 x2 x3 x4 x5 x6 x7 x8 x9 x10 x11 x12 x13 x14 x15 x16 x17 x18
End
